c13o18   J=1-50
   50    49
   1            1.0        0.0000000      J = 0
   2            3.0        3.4928255      J = 1
   3            5.0       10.4783552      J = 2
   4            7.0       20.9563465      J = 3
   5            9.0       34.9264362      J = 4
   6           11.0       52.3881392      J = 5
   7           13.0       73.3408496      J = 6
   8           15.0       97.7838400      J = 7
   9           17.0      125.7162619      J = 8
  10           19.0      157.1371456      J = 9
  11           21.0      192.0454005      J = 10
  12           23.0      230.4398155      J = 11
  13           25.0      272.3190565      J = 12
  14           27.0      317.6816657      J = 13
  15           29.0      366.5260721      J = 14
  16           31.0      418.8505778      J = 15
  17           33.0      474.6533615      J = 16
  18           35.0      533.9324886      J = 17
  19           37.0      596.6858942      J = 18
  20           39.0      662.9114003      J = 19
  21           41.0      732.6067017      J = 20
  22           43.0      805.7693735      J = 21
  23           45.0      882.3968707      J = 22
  24           47.0      962.4865279      J = 23
  25           49.0     1046.0355565      J = 24
  26           51.0     1133.0410480      J = 25
  27           53.0     1223.4999734      J = 26
  28           55.0     1317.4091806      J = 27
  29           57.0     1414.7653939      J = 28
  30           59.0     1515.5652243      J = 29
  31           61.0     1619.8051527      J = 30
  32           63.0     1727.4815465      J = 31
  33           65.0     1838.5906431      J = 32
  34           67.0     1953.1285698      J = 33
  35           69.0     2071.0913238      J = 34
  36           71.0     2192.4747822      J = 35
  37           73.0     2317.2747054      J = 36
  38           75.0     2445.4867269      J = 37
  39           77.0     2577.1063670      J = 38
  40           79.0     2712.1290158      J = 39
  41           81.0     2850.5499466      J = 40
  42           83.0     2992.3643127      J = 41
  43           85.0     3137.5671406      J = 42
  44           87.0     3286.1533435      J = 43
  45           89.0     3438.1177077      J = 44
  46           91.0     3593.4549028      J = 45
  47           93.0     3752.1594716      J = 46
  48           95.0     3914.2258369      J = 47
  49           97.0     4079.6483047      J = 48
  50           99.0     4248.4210576      J = 49
   2    1   5.592E-8   1       j=   1->   0
   3    2   5.368E-7   1       j=   2->   1
   4    3   1.941E-6   1       j=   3->   2
   5    4   4.771E-6   1       j=   4->   3
   6    5   9.529E-6   1       j=   5->   4
   7    6   1.671E-5   1       j=   6->   5
   8    7   2.683E-5   1       j=   7->   6
   9    8   4.038E-5   1       j=   8->   7
  10    9   5.785E-5   1       j=   9->   8 
  11   10   7.976E-5   1       j=  10->   9
  12   11   1.065E-4   1       j=  11->  10
  13   12   1.388E-4   1       j=  12->  11
  14   13   1.769E-4   1       j=  13->  12
  15   14   2.215E-4   1       j=  14->  13
  16   15   2.729E-4   1       j=  15->  14
  17   16   3.317E-4   1       j=  16->  15
  18   17   3.983E-4   1       j=  17->  16
  19   18   4.733E-4   1       j=  18->  17
  20   19   5.571E-4   1       j=  19->  18
  21   20   6.502E-4   1       j=  20->  19
  22   21   7.530E-4   1       j=  21->  20
  23   22   8.661E-4   1       j=  22->  21
  24   23   9.898E-4   1       j=  23->  22
  25   24   1.124E-3   1       j=  24->  23
  26   25   1.271E-3   1       j=  25->  24
  27   26   1.429E-3   1       j=  26->  25
  28   27   1.600E-3   1       j=  27->  26
  29   28   1.784E-3   1       j=  28->  27
  30   29   1.982E-3   1       j=  29->  28
  31   30   2.193E-3   1       j=  30->  29
  32   31   2.418E-3   1       j=  31->  30
  33   32   2.659E-3   1       j=  32->  31
  34   33   2.914E-3   1       j=  33->  32
  35   34   3.184E-3   1       j=  34->  33
  36   35   3.471E-3   1       j=  35->  34
  37   36   3.774E-3   1       j=  36->  35
  38   37   4.094E-3   1       j=  37->  36
  39   38   4.430E-3   1       j=  38->  37
  40   39   4.785E-3   1       j=  39->  38
  41   40   5.157E-3   1       j=  40->  39
  42   41   5.547E-3   1       j=  41->  40
  43   42   5.956E-3   1       j=  42->  41
  44   43   6.384E-3   1       j=  43->  42
  45   44   6.831E-3   1       j=  44->  43
  46   45   7.298E-3   1       j=  45->  44
  47   46   7.785E-3   1       j=  46->  45
  48   47   8.292E-3   1       j=  47->  46
  49   48   8.820E-3   1       j=  48->  47
  50   49   9.369E-3   1       j=  49->  48



